Route #1: 22 36 9 38 13 14 41 2
Route #2: 43 29 40 30 23 17
Route #3: 4 34 39 12 3 25 6
Route #4: 26 10 11 16 20 18 1 35
Route #5: 19 33 37 42 32 21 5 24
Route #6: 7 28 27 15 8 31
Cost 937
Time 0.073591
